
Gurobi 12.0.3 (linux64) logging started Thu Aug 21 04:42:03 2025

Set parameter LogFile to value "logs/instance-15.txt"
Gurobi Optimizer version 12.0.3 build v12.0.3rc0 (linux64 - "Ubuntu 24.04.3 LTS")

CPU model: Intel(R) Core(TM) i5-8250U CPU @ 1.60GHz, instruction set [SSE2|AVX|AVX2]
Thread count: 4 physical cores, 8 logical processors, using up to 8 threads

Non-default parameters:
TimeLimit  900

Optimize a model with 239800 rows, 80200 columns and 562581 nonzeros
Model fingerprint: 0xc2d974ae
Variable types: 0 continuous, 80200 integer (80200 binary)
Coefficient statistics:
  Matrix range     [1e+00, 1e+00]
  Objective range  [1e+00, 1e+01]
  Bounds range     [1e+00, 1e+00]
  RHS range        [1e+00, 1e+00]
Found heuristic solution: objective -1911.000000
Found heuristic solution: objective 566.0000000
Presolve removed 125631 rows and 3817 columns
Presolve time: 4.93s
Presolved: 114169 rows, 76383 columns, 269636 nonzeros
Variable types: 0 continuous, 76383 integer (76383 binary)
Deterministic concurrent LP optimizer: primal and dual simplex
Showing primal log only...


Root simplex log...

Iteration    Objective       Primal Inf.    Dual Inf.      Time
       0   -2.0960800e+05   0.000000e+00   4.183060e+05      5s
Warning: Markowitz tolerance tightened to 0.5
  672948   -4.0025874e+04   0.000000e+00   6.179240e+05     10s
  674738   -4.0022345e+04   0.000000e+00   7.880490e+05     15s
  676238   -4.0019084e+04   0.000000e+00   7.726510e+05     20s
  677568   -4.0016111e+04   0.000000e+00   1.101278e+06     25s
  678688   -4.0013436e+04   0.000000e+00   1.282610e+06     30s
  679788   -4.0010458e+04   0.000000e+00   1.003488e+06     35s
  680898   -4.0007341e+04   0.000000e+00   1.357102e+06     40s
  681898   -4.0004048e+04   0.000000e+00   1.272333e+06     45s
  682938   -4.0000685e+04   0.000000e+00   1.355204e+06     50s
  683898   -3.9997276e+04   0.000000e+00   1.398113e+06     55s
  684738   -3.9993836e+04   0.000000e+00   1.561268e+06     60s
  685578   -3.9990197e+04   0.000000e+00   1.480449e+06     65s
  686488   -3.9984856e+04   0.000000e+00   2.053166e+06     71s
  687288   -3.9979737e+04   0.000000e+00   1.598391e+06     75s
  688088   -3.9973491e+04   0.000000e+00   1.996535e+06     80s
Concurrent spin time: 0.00s

Solved with dual simplex

Root simplex log...

Iteration    Objective       Primal Inf.    Dual Inf.      Time
   67161    1.0380000e+05   0.000000e+00   0.000000e+00     84s

Root relaxation: objective 1.038000e+05, 67161 iterations, 78.62 seconds (33.00 work units)

    Nodes    |    Current Node    |     Objective Bounds      |     Work
 Expl Unexpl |  Obj  Depth IntInf | Incumbent    BestBd   Gap | It/Node Time

     0     0 103800.000    0 38194  566.00000 103800.000      -     -   85s
H    0     0                    2121.0000000 103800.000  4794%     -   85s
H    0     0                    8039.0000000 103800.000  1191%     -   85s
H    0     0                    8279.0000000 102814.500  1142%     -  132s
     0     0 102755.500    0 38088 8279.00000 102755.500  1141%     -  147s
     0     0 102314.500    0 38049 8279.00000 102314.500  1136%     -  156s
     0     0 100593.512    0 38216 8279.00000 100593.512  1115%     -  181s
     0     0 99723.2803    0 38271 8279.00000 99723.2803  1105%     -  195s
     0     0 98941.2059    0 38452 8279.00000 98941.2059  1095%     -  214s
     0     0 98297.0000    0 38987 8279.00000 98297.0000  1087%     -  273s
     0     0 97150.5585    0 39893 8279.00000 97150.5585  1073%     -  437s
     0     0 97092.1667    0 39914 8279.00000 97092.1667  1073%     -  457s
     0     0 97092.1667    0 39948 8279.00000 97092.1667  1073%     -  464s
     0     0 97092.1667    0 39921 8279.00000 97092.1667  1073%     -  474s
     0     0 97092.1667    0 39936 8279.00000 97092.1667  1073%     -  477s
     0     0 97092.1667    0 39952 8279.00000 97092.1667  1073%     -  479s
H    0     0                    8390.0000000 96191.5417  1047%     -  707s
     0     0 95586.5255    0 39638 8390.00000 95586.5255  1039%     -  707s
H    0     0                    8499.0000000 95586.5255  1025%     -  708s
     0     0          -    0      8499.00000 95586.5255  1025%     -  900s

Cutting planes:
  Gomory: 2
  Dual implied bound: 21
  Zero half: 1929
  RLT: 5855
  BQP: 15331

Explored 1 nodes (157838 simplex iterations) in 900.15 seconds (294.50 work units)
Thread count was 8 (of 8 available processors)

Solution count 7: 8499 8390 8279 ... -1911

Time limit reached
Best objective 8.499000000000e+03, best bound 9.558600000000e+04, gap 1024.6735%
